c File: instances/30_0.20_3.col
c
c Description: Random graph of size 30 vertices and P(0.2) of edges between any two vertices.
p col 30 435
e 1 16
e 1 18
e 1 23
e 1 25
e 1 28
e 1 29
e 1 30
e 2 4
e 2 5
e 2 6
e 2 17
e 2 19
e 2 22
e 2 26
e 3 7
e 3 11
e 4 5
e 5 6
e 5 9
e 6 8
e 6 16
e 6 19
e 6 24
e 6 26
e 6 30
e 7 20
e 7 22
e 7 28
e 8 10
e 8 17
e 8 18
e 8 21
e 8 22
e 8 28
e 9 10
e 9 21
e 9 25
e 10 14
e 10 23
e 11 13
e 11 15
e 11 17
e 11 24
e 11 30
e 12 13
e 12 17
e 12 26
e 13 20
e 13 26
e 13 28
e 14 20
e 14 23
e 14 28
e 15 22
e 15 29
e 15 30
e 16 17
e 16 18
e 16 20
e 16 29
e 16 30
e 17 19
e 17 23
e 17 26
e 18 19
e 18 29
e 19 22
e 19 27
e 21 26
e 23 25
e 24 28
e 25 28
e 28 30